************************************************************************
file with basedata            : ?
initial value random generator: ?
************************************************************************
projects                      :  1
jobs (incl. supersource/sink ):  302
horizon                       :  ?
RESOURCES
  - renewable                 :  10   R
  - nonrenewable              :  0   N
  - doubly constrained        :  0   D
************************************************************************
PROJECT INFORMATION:
pronr.  #jobs rel.date duedate tardcost  MPM-Time
    1     300      0       ?       ?       ?
************************************************************************
PRECEDENCE RELATIONS:
jobnr.    #modes  #successors   successors
1      1      30      2  12  22  32  42  52  62  72  82  92  102  112  122  132  142  152  162  172  182  192  202  212  222  232  242  252  262  272  282  292
2      1      1      3
3      1      1      4
4      1      1      5
5      1      1      6
6      1      1      7
7      1      1      8
8      1      1      9
9      1      1      10
10      1      1      11
11      1      1      302
12      1      1      13
13      1      1      14
14      1      1      15
15      1      1      16
16      1      1      17
17      1      1      18
18      1      1      19
19      1      1      20
20      1      1      21
21      1      1      302
22      1      1      23
23      1      1      24
24      1      1      25
25      1      1      26
26      1      1      27
27      1      1      28
28      1      1      29
29      1      1      30
30      1      1      31
31      1      1      302
32      1      1      33
33      1      1      34
34      1      1      35
35      1      1      36
36      1      1      37
37      1      1      38
38      1      1      39
39      1      1      40
40      1      1      41
41      1      1      302
42      1      1      43
43      1      1      44
44      1      1      45
45      1      1      46
46      1      1      47
47      1      1      48
48      1      1      49
49      1      1      50
50      1      1      51
51      1      1      302
52      1      1      53
53      1      1      54
54      1      1      55
55      1      1      56
56      1      1      57
57      1      1      58
58      1      1      59
59      1      1      60
60      1      1      61
61      1      1      302
62      1      1      63
63      1      1      64
64      1      1      65
65      1      1      66
66      1      1      67
67      1      1      68
68      1      1      69
69      1      1      70
70      1      1      71
71      1      1      302
72      1      1      73
73      1      1      74
74      1      1      75
75      1      1      76
76      1      1      77
77      1      1      78
78      1      1      79
79      1      1      80
80      1      1      81
81      1      1      302
82      1      1      83
83      1      1      84
84      1      1      85
85      1      1      86
86      1      1      87
87      1      1      88
88      1      1      89
89      1      1      90
90      1      1      91
91      1      1      302
92      1      1      93
93      1      1      94
94      1      1      95
95      1      1      96
96      1      1      97
97      1      1      98
98      1      1      99
99      1      1      100
100      1      1      101
101      1      1      302
102      1      1      103
103      1      1      104
104      1      1      105
105      1      1      106
106      1      1      107
107      1      1      108
108      1      1      109
109      1      1      110
110      1      1      111
111      1      1      302
112      1      1      113
113      1      1      114
114      1      1      115
115      1      1      116
116      1      1      117
117      1      1      118
118      1      1      119
119      1      1      120
120      1      1      121
121      1      1      302
122      1      1      123
123      1      1      124
124      1      1      125
125      1      1      126
126      1      1      127
127      1      1      128
128      1      1      129
129      1      1      130
130      1      1      131
131      1      1      302
132      1      1      133
133      1      1      134
134      1      1      135
135      1      1      136
136      1      1      137
137      1      1      138
138      1      1      139
139      1      1      140
140      1      1      141
141      1      1      302
142      1      1      143
143      1      1      144
144      1      1      145
145      1      1      146
146      1      1      147
147      1      1      148
148      1      1      149
149      1      1      150
150      1      1      151
151      1      1      302
152      1      1      153
153      1      1      154
154      1      1      155
155      1      1      156
156      1      1      157
157      1      1      158
158      1      1      159
159      1      1      160
160      1      1      161
161      1      1      302
162      1      1      163
163      1      1      164
164      1      1      165
165      1      1      166
166      1      1      167
167      1      1      168
168      1      1      169
169      1      1      170
170      1      1      171
171      1      1      302
172      1      1      173
173      1      1      174
174      1      1      175
175      1      1      176
176      1      1      177
177      1      1      178
178      1      1      179
179      1      1      180
180      1      1      181
181      1      1      302
182      1      1      183
183      1      1      184
184      1      1      185
185      1      1      186
186      1      1      187
187      1      1      188
188      1      1      189
189      1      1      190
190      1      1      191
191      1      1      302
192      1      1      193
193      1      1      194
194      1      1      195
195      1      1      196
196      1      1      197
197      1      1      198
198      1      1      199
199      1      1      200
200      1      1      201
201      1      1      302
202      1      1      203
203      1      1      204
204      1      1      205
205      1      1      206
206      1      1      207
207      1      1      208
208      1      1      209
209      1      1      210
210      1      1      211
211      1      1      302
212      1      1      213
213      1      1      214
214      1      1      215
215      1      1      216
216      1      1      217
217      1      1      218
218      1      1      219
219      1      1      220
220      1      1      221
221      1      1      302
222      1      1      223
223      1      1      224
224      1      1      225
225      1      1      226
226      1      1      227
227      1      1      228
228      1      1      229
229      1      1      230
230      1      1      231
231      1      1      302
232      1      1      233
233      1      1      234
234      1      1      235
235      1      1      236
236      1      1      237
237      1      1      238
238      1      1      239
239      1      1      240
240      1      1      241
241      1      1      302
242      1      1      243
243      1      1      244
244      1      1      245
245      1      1      246
246      1      1      247
247      1      1      248
248      1      1      249
249      1      1      250
250      1      1      251
251      1      1      302
252      1      1      253
253      1      1      254
254      1      1      255
255      1      1      256
256      1      1      257
257      1      1      258
258      1      1      259
259      1      1      260
260      1      1      261
261      1      1      302
262      1      1      263
263      1      1      264
264      1      1      265
265      1      1      266
266      1      1      267
267      1      1      268
268      1      1      269
269      1      1      270
270      1      1      271
271      1      1      302
272      1      1      273
273      1      1      274
274      1      1      275
275      1      1      276
276      1      1      277
277      1      1      278
278      1      1      279
279      1      1      280
280      1      1      281
281      1      1      302
282      1      1      283
283      1      1      284
284      1      1      285
285      1      1      286
286      1      1      287
287      1      1      288
288      1      1      289
289      1      1      290
290      1      1      291
291      1      1      302
292      1      1      293
293      1      1      294
294      1      1      295
295      1      1      296
296      1      1      297
297      1      1      298
298      1      1      299
299      1      1      300
300      1      1      301
301      1      1      302
302      1      0      
************************************************************************
REQUESTS/DURATIONS:
jobnr. mode duration  R 1  R 2  R 3  R 4  R 5  R 6  R 7  R 8  R 9  R 10
------------------------------------------------------------------------
1      1      0      0   0   0   0   0   0   0   0   0   0
2      1      27      0   1   0   0   0   0   0   0   0   0
3      1      71      0   0   0   0   0   1   0   0   0   0
4      1      80      0   0   0   0   0   0   0   0   1   0
5      1      45      0   0   0   0   0   0   0   0   0   1
6      1      83      0   0   1   0   0   0   0   0   0   0
7      1      47      1   0   0   0   0   0   0   0   0   0
8      1      38      0   0   0   0   0   0   1   0   0   0
9      1      52      0   0   0   0   0   0   0   1   0   0
10      1      89      0   0   0   1   0   0   0   0   0   0
11      1      89      0   0   0   0   1   0   0   0   0   0
12      1      33      0   0   0   0   0   1   0   0   0   0
13      1      70      0   0   0   0   0   0   0   0   1   0
14      1      94      0   0   0   1   0   0   0   0   0   0
15      1      13      0   0   0   0   0   0   0   1   0   0
16      1      25      1   0   0   0   0   0   0   0   0   0
17      1      17      0   0   0   0   0   0   1   0   0   0
18      1      34      0   0   0   0   0   0   0   0   0   1
19      1      32      0   1   0   0   0   0   0   0   0   0
20      1      43      0   0   1   0   0   0   0   0   0   0
21      1      34      0   0   0   0   1   0   0   0   0   0
22      1      54      0   0   0   0   0   0   1   0   0   0
23      1      1      0   0   0   1   0   0   0   0   0   0
24      1      64      0   0   0   0   0   1   0   0   0   0
25      1      56      0   0   0   0   0   0   0   0   0   1
26      1      64      0   0   0   0   0   0   0   0   1   0
27      1      32      0   0   0   0   0   0   0   1   0   0
28      1      7      0   1   0   0   0   0   0   0   0   0
29      1      1      0   0   0   0   1   0   0   0   0   0
30      1      4      0   0   1   0   0   0   0   0   0   0
31      1      35      1   0   0   0   0   0   0   0   0   0
32      1      9      0   0   0   1   0   0   0   0   0   0
33      1      48      0   0   0   0   0   0   0   0   1   0
34      1      32      0   0   0   0   0   1   0   0   0   0
35      1      59      1   0   0   0   0   0   0   0   0   0
36      1      54      0   0   1   0   0   0   0   0   0   0
37      1      59      0   1   0   0   0   0   0   0   0   0
38      1      32      0   0   0   0   0   0   0   0   0   1
39      1      70      0   0   0   0   0   0   1   0   0   0
40      1      52      0   0   0   0   0   0   0   1   0   0
41      1      88      0   0   0   0   1   0   0   0   0   0
42      1      33      0   0   0   0   0   1   0   0   0   0
43      1      19      0   1   0   0   0   0   0   0   0   0
44      1      10      0   0   0   1   0   0   0   0   0   0
45      1      10      0   0   0   0   0   0   0   0   0   1
46      1      80      0   0   0   0   1   0   0   0   0   0
47      1      20      0   0   0   0   0   0   1   0   0   0
48      1      62      1   0   0   0   0   0   0   0   0   0
49      1      9      0   0   1   0   0   0   0   0   0   0
50      1      93      0   0   0   0   0   0   0   1   0   0
51      1      4      0   0   0   0   0   0   0   0   1   0
52      1      79      0   0   0   0   0   0   1   0   0   0
53      1      75      0   0   0   0   0   0   0   0   1   0
54      1      83      0   0   0   1   0   0   0   0   0   0
55      1      81      0   1   0   0   0   0   0   0   0   0
56      1      51      0   0   1   0   0   0   0   0   0   0
57      1      57      1   0   0   0   0   0   0   0   0   0
58      1      55      0   0   0   0   0   1   0   0   0   0
59      1      42      0   0   0   0   0   0   0   0   0   1
60      1      46      0   0   0   0   0   0   0   1   0   0
61      1      78      0   0   0   0   1   0   0   0   0   0
62      1      55      0   0   0   0   0   0   0   1   0   0
63      1      98      0   0   0   0   1   0   0   0   0   0
64      1      46      0   0   0   0   0   0   0   0   1   0
65      1      82      0   1   0   0   0   0   0   0   0   0
66      1      32      0   0   0   0   0   1   0   0   0   0
67      1      73      0   0   0   0   0   0   0   0   0   1
68      1      40      0   0   0   1   0   0   0   0   0   0
69      1      21      0   0   1   0   0   0   0   0   0   0
70      1      86      0   0   0   0   0   0   1   0   0   0
71      1      53      1   0   0   0   0   0   0   0   0   0
72      1      48      0   0   0   0   0   0   1   0   0   0
73      1      75      0   0   0   0   0   0   0   1   0   0
74      1      15      0   0   0   0   0   1   0   0   0   0
75      1      68      0   0   0   0   1   0   0   0   0   0
76      1      90      0   1   0   0   0   0   0   0   0   0
77      1      2      0   0   0   0   0   0   0   0   1   0
78      1      57      1   0   0   0   0   0   0   0   0   0
79      1      76      0   0   1   0   0   0   0   0   0   0
80      1      80      0   0   0   0   0   0   0   0   0   1
81      1      41      0   0   0   1   0   0   0   0   0   0
82      1      95      0   0   0   0   0   1   0   0   0   0
83      1      89      0   0   0   0   0   0   0   1   0   0
84      1      34      0   0   0   0   0   0   1   0   0   0
85      1      76      0   0   0   0   0   0   0   0   1   0
86      1      4      0   0   0   0   0   0   0   0   0   1
87      1      83      1   0   0   0   0   0   0   0   0   0
88      1      57      0   1   0   0   0   0   0   0   0   0
89      1      57      0   0   0   0   1   0   0   0   0   0
90      1      5      0   0   1   0   0   0   0   0   0   0
91      1      63      0   0   0   1   0   0   0   0   0   0
92      1      12      1   0   0   0   0   0   0   0   0   0
93      1      73      0   0   0   0   0   0   0   0   1   0
94      1      17      0   0   0   0   1   0   0   0   0   0
95      1      30      0   0   0   0   0   0   0   0   0   1
96      1      2      0   0   0   0   0   0   1   0   0   0
97      1      19      0   0   0   0   0   1   0   0   0   0
98      1      53      0   0   0   1   0   0   0   0   0   0
99      1      72      0   0   0   0   0   0   0   1   0   0
100      1      26      0   0   1   0   0   0   0   0   0   0
101      1      87      0   1   0   0   0   0   0   0   0   0
102      1      98      0   0   0   0   0   0   0   0   0   1
103      1      11      0   0   0   0   0   0   0   0   1   0
104      1      64      0   0   1   0   0   0   0   0   0   0
105      1      47      0   0   0   0   0   0   0   1   0   0
106      1      82      0   0   0   0   0   0   1   0   0   0
107      1      73      0   0   0   0   0   1   0   0   0   0
108      1      66      0   1   0   0   0   0   0   0   0   0
109      1      38      0   0   0   0   1   0   0   0   0   0
110      1      42      1   0   0   0   0   0   0   0   0   0
111      1      94      0   0   0   1   0   0   0   0   0   0
112      1      32      0   0   1   0   0   0   0   0   0   0
113      1      52      1   0   0   0   0   0   0   0   0   0
114      1      94      0   0   0   0   0   0   0   0   0   1
115      1      17      0   0   0   0   0   0   0   1   0   0
116      1      53      0   0   0   1   0   0   0   0   0   0
117      1      16      0   0   0   0   0   0   1   0   0   0
118      1      31      0   0   0   0   0   1   0   0   0   0
119      1      11      0   1   0   0   0   0   0   0   0   0
120      1      11      0   0   0   0   1   0   0   0   0   0
121      1      18      0   0   0   0   0   0   0   0   1   0
122      1      23      1   0   0   0   0   0   0   0   0   0
123      1      68      0   0   0   0   0   0   0   0   0   1
124      1      97      0   0   0   0   1   0   0   0   0   0
125      1      59      0   0   0   0   0   0   0   0   1   0
126      1      69      0   0   1   0   0   0   0   0   0   0
127      1      28      0   0   0   0   0   1   0   0   0   0
128      1      4      0   1   0   0   0   0   0   0   0   0
129      1      8      0   0   0   0   0   0   1   0   0   0
130      1      76      0   0   0   0   0   0   0   1   0   0
131      1      93      0   0   0   1   0   0   0   0   0   0
132      1      22      0   0   0   0   0   0   0   0   0   1
133      1      46      0   0   0   0   0   1   0   0   0   0
134      1      36      0   0   1   0   0   0   0   0   0   0
135      1      75      0   0   0   0   1   0   0   0   0   0
136      1      83      0   0   0   0   0   0   0   0   1   0
137      1      54      1   0   0   0   0   0   0   0   0   0
138      1      37      0   1   0   0   0   0   0   0   0   0
139      1      68      0   0   0   1   0   0   0   0   0   0
140      1      30      0   0   0   0   0   0   1   0   0   0
141      1      3      0   0   0   0   0   0   0   1   0   0
142      1      43      0   0   0   0   0   0   0   1   0   0
143      1      43      0   0   0   0   0   0   0   0   0   1
144      1      12      0   0   0   0   0   0   1   0   0   0
145      1      97      0   0   0   0   0   1   0   0   0   0
146      1      51      0   0   0   0   0   0   0   0   1   0
147      1      37      0   1   0   0   0   0   0   0   0   0
148      1      92      0   0   0   1   0   0   0   0   0   0
149      1      38      0   0   1   0   0   0   0   0   0   0
150      1      26      1   0   0   0   0   0   0   0   0   0
151      1      27      0   0   0   0   1   0   0   0   0   0
152      1      1      0   0   0   0   0   1   0   0   0   0
153      1      25      0   0   0   0   0   0   0   0   0   1
154      1      89      0   0   0   0   0   0   0   1   0   0
155      1      73      1   0   0   0   0   0   0   0   0   0
156      1      62      0   0   1   0   0   0   0   0   0   0
157      1      86      0   0   0   0   0   0   1   0   0   0
158      1      53      0   1   0   0   0   0   0   0   0   0
159      1      84      0   0   0   0   1   0   0   0   0   0
160      1      47      0   0   0   1   0   0   0   0   0   0
161      1      31      0   0   0   0   0   0   0   0   1   0
162      1      55      0   0   0   0   1   0   0   0   0   0
163      1      52      0   0   0   1   0   0   0   0   0   0
164      1      12      0   0   0   0   0   1   0   0   0   0
165      1      90      0   1   0   0   0   0   0   0   0   0
166      1      55      1   0   0   0   0   0   0   0   0   0
167      1      73      0   0   1   0   0   0   0   0   0   0
168      1      34      0   0   0   0   0   0   0   1   0   0
169      1      30      0   0   0   0   0   0   1   0   0   0
170      1      62      0   0   0   0   0   0   0   0   0   1
171      1      93      0   0   0   0   0   0   0   0   1   0
172      1      89      0   0   0   0   0   0   0   0   1   0
173      1      77      1   0   0   0   0   0   0   0   0   0
174      1      59      0   0   0   0   0   1   0   0   0   0
175      1      88      0   0   0   0   1   0   0   0   0   0
176      1      4      0   1   0   0   0   0   0   0   0   0
177      1      32      0   0   0   0   0   0   1   0   0   0
178      1      61      0   0   0   1   0   0   0   0   0   0
179      1      81      0   0   0   0   0   0   0   1   0   0
180      1      36      0   0   1   0   0   0   0   0   0   0
181      1      18      0   0   0   0   0   0   0   0   0   1
182      1      88      0   0   0   0   0   0   0   0   1   0
183      1      12      0   0   0   1   0   0   0   0   0   0
184      1      65      0   0   0   0   0   1   0   0   0   0
185      1      83      0   0   0   0   0   0   1   0   0   0
186      1      50      0   1   0   0   0   0   0   0   0   0
187      1      91      0   0   1   0   0   0   0   0   0   0
188      1      23      0   0   0   0   0   0   0   1   0   0
189      1      48      0   0   0   0   0   0   0   0   0   1
190      1      37      0   0   0   0   1   0   0   0   0   0
191      1      46      1   0   0   0   0   0   0   0   0   0
192      1      88      0   0   0   0   0   1   0   0   0   0
193      1      29      0   0   0   0   0   0   0   0   0   1
194      1      68      0   0   0   0   0   0   0   0   1   0
195      1      68      1   0   0   0   0   0   0   0   0   0
196      1      26      0   0   0   1   0   0   0   0   0   0
197      1      44      0   0   0   0   0   0   0   1   0   0
198      1      55      0   0   0   0   0   0   1   0   0   0
199      1      13      0   1   0   0   0   0   0   0   0   0
200      1      73      0   0   0   0   1   0   0   0   0   0
201      1      44      0   0   1   0   0   0   0   0   0   0
202      1      53      0   0   0   0   0   0   0   1   0   0
203      1      52      0   0   1   0   0   0   0   0   0   0
204      1      34      0   0   0   0   0   1   0   0   0   0
205      1      26      0   1   0   0   0   0   0   0   0   0
206      1      64      0   0   0   0   1   0   0   0   0   0
207      1      22      0   0   0   0   0   0   1   0   0   0
208      1      67      0   0   0   1   0   0   0   0   0   0
209      1      30      1   0   0   0   0   0   0   0   0   0
210      1      38      0   0   0   0   0   0   0   0   1   0
211      1      25      0   0   0   0   0   0   0   0   0   1
212      1      43      0   0   0   0   0   0   0   1   0   0
213      1      39      1   0   0   0   0   0   0   0   0   0
214      1      53      0   0   1   0   0   0   0   0   0   0
215      1      92      0   0   0   0   0   1   0   0   0   0
216      1      19      0   0   0   0   0   0   0   0   1   0
217      1      74      0   0   0   0   0   0   0   0   0   1
218      1      10      0   0   0   0   0   0   1   0   0   0
219      1      94      0   0   0   1   0   0   0   0   0   0
220      1      57      0   0   0   0   1   0   0   0   0   0
221      1      93      0   1   0   0   0   0   0   0   0   0
222      1      72      0   0   1   0   0   0   0   0   0   0
223      1      88      0   0   0   0   0   0   0   0   0   1
224      1      81      0   0   0   0   0   1   0   0   0   0
225      1      96      0   0   0   0   0   0   0   1   0   0
226      1      62      0   1   0   0   0   0   0   0   0   0
227      1      23      0   0   0   0   0   0   0   0   1   0
228      1      17      0   0   0   0   1   0   0   0   0   0
229      1      66      0   0   0   0   0   0   1   0   0   0
230      1      34      0   0   0   1   0   0   0   0   0   0
231      1      3      1   0   0   0   0   0   0   0   0   0
232      1      84      0   0   0   0   0   0   1   0   0   0
233      1      9      0   1   0   0   0   0   0   0   0   0
234      1      67      0   0   0   1   0   0   0   0   0   0
235      1      94      0   0   1   0   0   0   0   0   0   0
236      1      28      0   0   0   0   0   0   0   1   0   0
237      1      92      0   0   0   0   0   0   0   0   0   1
238      1      47      0   0   0   0   1   0   0   0   0   0
239      1      39      1   0   0   0   0   0   0   0   0   0
240      1      83      0   0   0   0   0   0   0   0   1   0
241      1      52      0   0   0   0   0   1   0   0   0   0
242      1      86      0   1   0   0   0   0   0   0   0   0
243      1      90      0   0   0   1   0   0   0   0   0   0
244      1      34      1   0   0   0   0   0   0   0   0   0
245      1      6      0   0   1   0   0   0   0   0   0   0
246      1      83      0   0   0   0   0   0   0   0   1   0
247      1      38      0   0   0   0   0   1   0   0   0   0
248      1      39      0   0   0   0   0   0   0   1   0   0
249      1      6      0   0   0   0   0   0   0   0   0   1
250      1      31      0   0   0   0   1   0   0   0   0   0
251      1      34      0   0   0   0   0   0   1   0   0   0
252      1      31      0   0   0   0   0   0   0   0   1   0
253      1      34      0   0   0   0   1   0   0   0   0   0
254      1      46      1   0   0   0   0   0   0   0   0   0
255      1      67      0   0   1   0   0   0   0   0   0   0
256      1      88      0   0   0   1   0   0   0   0   0   0
257      1      73      0   0   0   0   0   0   1   0   0   0
258      1      71      0   0   0   0   0   0   0   1   0   0
259      1      74      0   1   0   0   0   0   0   0   0   0
260      1      2      0   0   0   0   0   1   0   0   0   0
261      1      94      0   0   0   0   0   0   0   0   0   1
262      1      39      0   0   0   0   0   0   0   0   1   0
263      1      72      0   0   0   0   0   0   1   0   0   0
264      1      3      0   0   0   1   0   0   0   0   0   0
265      1      97      0   0   0   0   1   0   0   0   0   0
266      1      60      1   0   0   0   0   0   0   0   0   0
267      1      88      0   1   0   0   0   0   0   0   0   0
268      1      49      0   0   0   0   0   1   0   0   0   0
269      1      92      0   0   1   0   0   0   0   0   0   0
270      1      33      0   0   0   0   0   0   0   0   0   1
271      1      42      0   0   0   0   0   0   0   1   0   0
272      1      15      0   1   0   0   0   0   0   0   0   0
273      1      48      0   0   0   0   0   1   0   0   0   0
274      1      32      0   0   0   0   1   0   0   0   0   0
275      1      97      0   0   0   0   0   0   0   1   0   0
276      1      93      0   0   0   1   0   0   0   0   0   0
277      1      88      0   0   0   0   0   0   1   0   0   0
278      1      9      1   0   0   0   0   0   0   0   0   0
279      1      49      0   0   0   0   0   0   0   0   1   0
280      1      3      0   0   1   0   0   0   0   0   0   0
281      1      29      0   0   0   0   0   0   0   0   0   1
282      1      82      1   0   0   0   0   0   0   0   0   0
283      1      3      0   0   0   0   0   0   1   0   0   0
284      1      78      0   0   0   0   0   0   0   1   0   0
285      1      48      0   0   0   1   0   0   0   0   0   0
286      1      21      0   0   0   0   0   0   0   0   1   0
287      1      66      0   0   0   0   1   0   0   0   0   0
288      1      30      0   0   0   0   0   1   0   0   0   0
289      1      67      0   0   1   0   0   0   0   0   0   0
290      1      82      0   1   0   0   0   0   0   0   0   0
291      1      93      0   0   0   0   0   0   0   0   0   1
292      1      47      0   0   1   0   0   0   0   0   0   0
293      1      37      0   0   0   0   1   0   0   0   0   0
294      1      70      1   0   0   0   0   0   0   0   0   0
295      1      65      0   0   0   0   0   0   0   0   1   0
296      1      48      0   0   0   0   0   1   0   0   0   0
297      1      18      0   0   0   0   0   0   0   0   0   1
298      1      86      0   0   0   0   0   0   1   0   0   0
299      1      76      0   1   0   0   0   0   0   0   0   0
300      1      66      0   0   0   0   0   0   0   1   0   0
301      1      82      0   0   0   1   0   0   0   0   0   0
302      1      0      0   0   0   0   0   0   0   0   0   0
************************************************************************
RESOURCEAVAILABILITIES:
   R 1   R 2   R 3   R 4   R 5   R 6   R 7   R 8   R 9   R 10
   1   1   1   1   1   1   1   1   1   1
************************************************************************